NAME: tsp_426
COMMENT: Random TSP instance
TYPE: TSP
DIMENSION: 50
EDGE_WEIGHT_TYPE: EUC_2D
NODE_COORD_SECTION
1 361 666
2 188 861
3 472 98
4 886 893
5 447 455
6 845 553
7 931 615
8 593 887
9 344 252
10 661 453
11 957 557
12 642 770
13 218 827
14 341 845
15 328 630
16 635 840
17 781 379
18 127 91
19 722 156
20 705 898
21 482 608
22 439 901
23 491 626
24 482 127
25 455 485
26 575 851
27 88 128
28 150 766
29 660 958
30 222 772
31 444 626
32 757 166
33 321 318
34 397 870
35 95 944
36 866 941
37 932 245
38 623 844
39 239 780
40 236 268
41 748 772
42 440 651
43 811 265
44 473 389
45 94 571
46 875 144
47 785 179
48 851 934
49 83 776
50 434 9
